c Lingeling SAT Solver
c 
c Version ala b02aa1a04343558c4252b5f4a723be021964f652
c 
c Copyright (C) 2010-2012 Armin Biere JKU Linz Austria.
c All rights reserved.
c 
c released Sat Oct 13 14:05:26 CEST 2012
c compiled Sat Feb 16 02:48:12 EST 2013
c 
c gcc (Debian 4.4.5-8) 4.4.5
c -Wall -O3 -DNLGLOG -DNDEBUG -DNCHKSOL -DNLGLPICOSAT 
c Linux greencar2 2.6.32-5-amd64 x86_64
c 
c reading input file p37.cnf
c no embedded options
c found 'p cnf 219937 684590' header
c read 219937 variables, 684590 clauses, 1424373 literals in 0.0 seconds
c
c feature vars 219937
c feature lits.total 1424373
c feature lits.pos 757705
c feature lits.neg 666668
c feature clauses.total 684590
c feature clauses.unit 81745
c feature clauses.bin 481507
c feature clauses.trn 119938
c feature clauses.lrg 1400
c feature cog.val.min 1
c feature cog.val.avg 98041
c feature cog.val.max 212328
c feature cog.var.min 1
c feature cog.var.avg 109969
c feature cog.var.max 219936
c
c
c --abstime=0
c --acts=2
c --actavgmax=120
c --actstdmin=20
c --actstdmax=80
c --agile=23
c --bias=2
c --block=1
c --blkrtc=0
c --blkclslim=2000
c --blkocclim=2000
c --blkmaxeff=2147483647
c --blkmineff=10000000
c --blkreleff=20
c --card=0
c --cce=3
c --ccemaxeff=100000000
c --ccemineff=5000000
c --ccereleff=3
c --check=0
c --cgrclsr=1
c --cgrmaxority=20
c --cgrmaxeff=8000000
c --cgrmineff=200000
c --cgreleff=1
c --cgrexteq=1
c --cgrextand=1
c --cgrextunits=1
c --cgrextite=1
c --cgrextxor=1
c --cliff=1
c --cliffreleff=8
c --cliffmineff=10000000
c --cliffmaxeff=100000000
c --compact=0
c --decompose=1
c --defragint=10000000
c --defragfree=50
c --elim=1
c --elmrtc=0
c --elmblk=1
c --elmclslim=1000
c --elmocclim=1000
c --elmaxeff=100000000
c --elmineff=5000000
c --elmreleff=10
c --sleeponabort=0
c --exitonabort=0
c --flipping=1
c --flipint=2
c --flipdur=50
c --fliptop=1
c --force=0
c --gauss=1
c --gaussextrall=1
c --gaussmaxor=20
c --gaussexptrn=1
c --gaussmaxeff=50000000
c --gaussmineff=2000000
c --gaussreleff=2
c --gluescale=2
c --gluekeep=0
c --inprocessing=1
c --cintinc=10000
c --irrlim=20
c --lift=1
c --lftmaxeff=20000000
c --lftmineff=500000
c --lftreleff=6
c --lhbr=1
c --lkhd=1
c --clim=-1
c --mocint=1000
c --move=2
c --log=-1
c --otfs=1
c --phase=0
c --phaseneginit=0
c --plain=0
c --probe=1
c --prbasicmaxeff=100000000
c --prbasicmineff=1000000
c --prbasicreleff=10
c --prbasic=1
c --prbasicroundlim=9
c --queuemergelim=10000
c --queuefactor=833
c --queueinc=20
c --rmincpen=4
c --seed=0
c --smallirr=90
c --smallve=1
c --smallvevars=12
c --randec=1
c --randecint=1000
c --redfixed=0
c --redlbound=0
c --redlexpfac=10
c --redldoutfac=0
c --redloutinc=10000
c --redlinit=1000
c --redlinc=1000
c --redinoutinc=100
c --redlmininc=10
c --redlmaxinc=200
c --redlminrel=10
c --redlmaxrel=300
c --redlminabs=500
c --redlmaxabs=1000000
c --reduce=1
c --restart=2
c --restartint=5
c --rstinoutinc=110
c --simplify=1
c --simpdelay=100
c --simpen=4
c --sizepen=1000000
c --sizemaxpen=3
c --sortlits=0
c --syncint=111111
c --termint=122222
c --ternres=1
c --ternresrtc=0
c --trnrmineff=4000000
c --trnrmaxeff=40000000
c --trnreleff=10
c --transred=1
c --trdmineff=100000
c --trdmaxeff=2000000
c --trdreleff=10
c --unhide=1
c --unhdextstamp=1
c --unhdhbr=0
c --unhdmaxeff=20000000
c --unhdmineff=1000000
c --unhdreleff=4
c --unhdlnpr=3
c --unhdroundlim=5
c --verbose=1
c --witness=1
c [limits] no conflict limit
c [limits] simplification delayed by 100 to 100 conflicts
c 
c  seconds         irredundant          redundant clauses agility   height
c          variables clauses conflicts large binary ternary    glue         MB
c 
c *    0.0  122738   517791         0       0      0     0  62  0.0   0.0   41
c [cut-width] 173405, max 265032, min4 120712 at 75%, min10 29800 at 85%
c [decision-order] bias 1, old 1
c [queue-schedule-all-variables]
c s    0.0  122738   517791         0       0      0     0  62  0.0   0.0   41
c [simplification-1] limit hit at 100 conflicts
c [simplification-1] simplification penalty of 4
c [ternres-1] limit 4000000 with penalty 0 = 0 + 0
c [ternres-1] all 122738 free variables schedulable
c [ternres-1] 1 ternary resolvents (0 bin, 1 trn)
c [ternres-1] 28582 variables remain 23% (94156 retained)
c T    0.3  122738   517791       100      99      0     2  23  5.8 288.6   45
c [gauss-1] limit 2000000 penalty 0 = 0 + 0
c [gauss-1] extracted 163239 xors of average arity 2.0
c [gauss-1] connected 326480 occurrences of 111027 variables (average 2.9)
c [gauss-1] limit 2000000 penalty 0 = 0 + 0
c d    1.5   57015   260512       100      99      0     2  23  5.8 288.6   21
c [gauss-1] exported 0 unary, 3 binary and 0 ternary equations
c G    1.5   57015   260512       100      99      0     2  23  5.8 288.6   21
c [basicprobe-1] limit 1000000 penalty 0 = 0 + 0
c [basicprobe-1-0] 3747 probes remain 7% after last round
c [basicprobe-1-0] removed 0 variables, found 17913 hbrs
c p    1.7   57015   260512       100      99  17912     2  23  5.8 288.6   25
c [cgrclsr-1] limit 200000 penalty 0 = 0 + 0
c [cgrclsr-1] all 57015 free variables schedulable
c [cgrclsr-1] fully completed congruence closure
c [lift-1] limit 500000 with penalty 0 = 0 + 0
c [lift-1] using 57015 probes 100%
c [lift-1] 56991 variables remain 100% (24 retained)
c [cliff-1] limit of 10000000 steps penalty 0 = 0 + 0
c [cliff-1] failed 0, lifted 2
c K    2.6   57013   260512       100      99  27605     2  23  5.8 288.6   25
c [unhide-1] limit 1000000 with penalty 0 = 0 + 0
c [unhide-1-1] 0 units, 0 failed, 22623 tauts, 0 hbrs, 57 literals
c u    2.9   57013   237880       100      99  27605     2  23  5.8 288.6   26
c [transred-1] limit 100000 with penalty 0 = 0 + 0
c t    2.9   57013   237879       100      99  27593     2  23  5.8 288.6   26
c [block-1] scheduling all variables this time
c [block-1] scheduled 57013 variables 100%
c [block-1] limit of 10000000 steps penalty 0 = 0 + 0
c [block-1] fully completed blocked clause elimination
c [block-1] transition to [ all 0 rem 0 ] state
c [block-1] eliminated 4002 blocked clauses
c k    3.1   57013   233877       100      99  27595  4002  23  5.8 288.6   21
c [cce-1] scheduling all variables this time
c [cce-1] limit of 10000000 steps penalty 0 = 0 + 0
c [cce-1] incomplete covered clause elimination 52086 not tried 91%
c [cce-1] transition to [ all 1 rem 1 ] state
c [cce-1] eliminated 137 covered clauses
c E    3.8   57008   233740       100      99  33433  4002  23  5.8 288.6   21
c [elim-1] scheduling all variables this time
c [elim-1] scheduled 57008 variables 100%
c [elim-1] limit of 5000000 steps penalty 0 = 0 + 0
c [elim-1] incomplete variable elimination 42935 not tried 75%
c [elim-1] transition to [ all 1 rem 1 ] state
c [elim-1] eliminated 5629 = 10% variables out of 57008
c e    5.4   51379   230260       100      58  15262   526  23  5.8 288.6   21
c [phase-1] phase bias: 432 positive 13%, 2876 negative 87%
c [simplification-1] removed 71359 variables 58%
c [simplification-1] limit increments divided by 30
c [simplification-1] arithmetic increase of conflict limit interval by 333
c [simplification-1] new irredundant limit 2256371
c [simplification-1] new conflict limit 433
c [simplification-1] simplification penalty reduced to 3
c R    5.6   51379   230260       162     116  15265   527   9  5.7 422.1   25
c R    5.7   51379   230260       407     323  15276   553   7  6.0 366.2   25
c [simplification-2] limit hit at 433 conflicts
c [simplification-2] simplification penalty of 3
c [ternres-2] limit 4000000 with penalty 0 = 0 + 0
c [ternres-2] 11943 schedulable variables 23%
c [ternres-2] 22 ternary resolvents (0 bin, 22 trn)
c [ternres-2] fully completed ternary resolution
c T    5.8   51379   230260       433     344  15278   577   5  6.0 349.8   26
c [gauss-2] limit 2000000 penalty 0 = 0 + 0
c [gauss-2] extracted 775 xors of average arity 3.0
c [gauss-2] connected 2325 occurrences of 1215 variables (average 1.9)
c [gauss-2] limit 2000000 penalty 0 = 0 + 0
c [gauss-2] fully completed
c [gauss-2] exported 0 unary, 0 binary and 0 ternary equations
c G    6.0   51379   230260       433     344  15278   577   5  6.0 349.8   21
c [basicprobe-2] limit 500000 penalty 1 = 1 + 0
c [basicprobe-2-0] 3843 probes remain 7% after last round
c [basicprobe-2-0] removed 0 variables, found 117 hbrs
c p    6.2   51379   230260       433     344  15395   576   5  6.0 349.8   25
c [cgrclsr-2] limit 100000 penalty 1 = 1 + 0
c [cgrclsr-2] all 51379 free variables schedulable
c [cgrclsr-2] fully completed congruence closure
c [lift-2] limit 250000 with penalty 1 = 1 + 0
c [lift-2] using 51358 probes 100%
c [lift-2] 51341 variables remain 100% (38 retained)
c [cliff-2] limit of 10000000 steps penalty 0 = 0 + 0
c [cliff-2] failed 0, lifted 0
c [unhide-2] limit 1000000 with penalty 0 = 0 + 0
c [unhide-2-2] 0 units, 0 failed, 1598 tauts, 0 hbrs, 120 literals
c u    7.3   51379   230254       433     342  14296   573   5  6.0 349.8   25
c [transred-3] limit 100000 with penalty 0 = 0 + 0
c t    7.3   51379   230251       433     342  14291   573   5  6.0 349.8   25
c [block-2] scheduling all variables this time
c [block-2] scheduled 51379 variables 100%
c [block-2] limit of 10000000 steps penalty 0 = 0 + 0
c [block-2] fully completed blocked clause elimination
c [block-2] transition to [ all 0 rem 0 ] state
c [block-2] eliminated 0 blocked clauses
c [cce-2] 48898 variables 95% will be scheduled this time
c [cce-2] limit of 10000000 steps penalty 0 = 0 + 0
c [cce-2] 48453 variables 94% remain to be tried next time
c [cce-2] transition to [ all 0 rem 1 ] state
c [cce-2] eliminated 351 covered clauses
c E    8.1   51379   229900       433     342  14687   573   5  6.0 349.8   21
c [elim-2] 42891 variables 83% will be scheduled this time
c [elim-2] scheduled 42891 variables 83%
c [elim-2] limit of 5000000 steps penalty 0 = 0 + 0
c [elim-2] 32844 variables 64% remain to be tried next time
c [elim-2] transition to [ all 0 rem 1 ] state
c [elim-2] eliminated 1058 = 2% variables out of 51379
c e    9.7   50321   229416       433     337  10517   572   5  6.0 349.8   21
c [simplification-2] removed 1058 variables 2%
c [simplification-2] limit increments divided by 2
c [simplification-2] arithmetic increase of conflict limit interval by 5000
c [simplification-2] new irredundant limit 2256371
c [simplification-2] new conflict limit 5766
c [simplification-2] simplification penalty reduced to 2
c R   10.1   50321   229416       977     816  10532   619   6  5.3 265.5   26
c -   10.3   50321   229416      1206     500  10548   644   4  5.1 229.7   25
c 
c  seconds         irredundant          redundant clauses agility   height
c          variables clauses conflicts large binary ternary    glue         MB
c 
c 1   10.7   50321   229416      1736     955  10579   687   5  5.1 226.8   26
c 
c  seconds         irredundant          redundant clauses agility   height
c          variables clauses conflicts large binary ternary    glue         MB
c 
c blkd: 2 bces, 4002 removed, 1355264 resolutions, 3810988 steps
c blkd: 4001 blocking literals 1%, 0 pure
c cces: 2 cces, 469 eliminated, 469 ate 100%, 0 abce 0%
c cces: 10742 probed, 1 lifted, 5 failed
c clff: 2 cliffs, 2 lifted, 0 failed
c clff: 7503 decisions, 20009973 steps
c clls: 1 sat, 0 simp, 0 freeze, 0 melt
c clls: 2108963 add, 0 assume,, 0 deref, 0 failed
c clls: 0 cassume, 0 mosat
c coll: 12 gcs, 0 rescored clauses
c cgrs: 2 count, 300000 esteps, 57871 csteps
c cgrs: 0 eqs, 0 units
c cgrs: 0 matched (0 ands 0%, 0 xors 0%, 0 ites 0%)
c cgrs: 0 simplified (0 ands 0%, 0 xors 0%, 0 ites 0%)
c cgrs: 1775 extracted (1519 ands 86%, 256 xors 14%, 0 ites 0%)
c dcps: 3 decompositions, 65723 equivalent 30%
c decs: 32580 decision, 32 random 0.098%
c decs: 8298 flipped 25.470% (in 16 phases)
c elms: 2 elims, 6687 eliminated 3%
c elms: 6687 small 100%, 0 large 0%
c elms: 24232 tried small, 6687 succeeded 28%, 17545 failed 72%
c elms: 0 subsumed, 0 strengthened, 0 blocked
c elms: 312044 copies, 216023 resolutions, 650287 ipos
c elms: 0 subchks, 0 strchks
c frcs: 0 computed, 27.6 - 72.4 average min-cut range
c gaus: 2 extractions, 164014 extracted, 2.0 size, 3 max
c gaus: exported 0 units, 3 binary and 0 ternary equations
c gaus: 0 gc, 8000174 steps, 4000087 extr 50%, 2358702 elim 29%
c glue: 5.1 avg, 2.3 scaled avg
c glue: 0 maxredglue=15 (0%)
c lift: 2 phases, 246 probed (82 level1 33%, 164 level2 67%)
c lift: 0 units, 0 equivalences, 1 implications
c hbrs: 33984 hbrs = 33984 trn 100% + 0 lrg 0%, 3 sub 0%
c lrnd: 1726 clauses, 1093 uips 63%, 19.1 length, 5.1 glue
c ints: 125 luby (11692 steps), 0 inout (0 steps)
c mins: 32911 learned lits, 5% minimized
c move: moved 4471, 471 binary 11%, 4000 ternary 89%
c otfs: str 37 dyn (27 red, 10 irr) 10 drv 27%, 27 rst 73%
c otfs: sub 0 dyn (0 red, 0 irr)
c phas: 1 computed, 3461 set, 432 pos (12%), 3029 neg (88%)
c prbs: 2 basic, 1406 probed, 0 failed, 0 lifted
c prps: 10834629 props, 129 props/dec
c prps: 39% srch, 61% simp, 0% lkhd
c psns: 108931 searches, 19268 hits, 18% hit rate
c queu: 5567 new, 1628 del, 115 maximum priority
c queu: 3925 merged, 813 collected, 2 gcs
c queu: 1763 deprioritized, 22.3 lines on average
c reds: 1 count, 0 reset, 1 acts 100%, 0 exp 0%
c reds: 1 arithmetic 100%, 1 double 100%
c rmbd: 6 removed, 0 red 0%
c rsts: 109 restarts 88%, 15 skipped 12%
c rsts: 13 kept 11.9% average 23.2%
c simp: 2 count (0 ilim 0%, 0 plim 0%, 2 clim 100%)
c trnr: 2 count, 0 bin, 23 trn, 5022194 steps
c tops: 97206 fixed 44%, 0 iterations
c trds: 4 transitive reductions, 21 removed, 0 failed
c trds: 173 nodes, 241 edges, 201857 steps
c unhd: 2 count, 2 rounds, 2449532 steps
c unhd: 0 non-trivial sccs of average size 0.0
c unhd: 0 units, 0 bin, 0 trn, 0 lrg
c unhd: 0 failed, 0 stamp, 0 lits, 0 bin, 0 trn, 0 lrg
c unhd: 24221 tauts, 0 bin 0%, 1 trn 0%, 2 lrg 0%
c unhd: 24221 tauts, 24218 stamp 100%, 1598 red 7%
c unhd: 0 hbrs, 0 trn 0%, 0 lrg 0%, 0 red 0%
c unhd: 177 strd, 0 bin 0%, 2 trn 1%, 175 lrg 99%, 176 red 99%
c vars: 50321 remaining 23% and 169616 removed 77% out of 219937
c vars: 97206 fixed 44%, 6687 eliminated 3%, 65723 equivalent 30%
c vsts: 50705329 visits, 39% srch, 61% simp, 0% lkhd
c vsts: 4.7 search visits per propagation 11444.6 per conflict
c wchs: 8898384 pushed, 4120802 enlarged, 21 defrags
c 
c scaledglue  added       reduced       forcing      resolved     conflicts
c 
c all      1506 100       500 100      4609 100      2496 100       142 100
c 
c  0          0   0         0   0         0   0         0   0         0   0 
c  1         41   3         0   0       178   4       113   5         4   3 
c  2        763  51       240  48      2697  59<     1218  49        69  49 
c  3        511  34<      203  41<     1410  31       845  34<       50  35<
c  4        145  10        40   8       231   5       246  10        16  11 
c  5         39   3        14   3        85   2        64   3         2   1 
c  6          5   0         1   0         6   0         8   0         1   1 
c  7          0   0         0   0         0   0         0   0         0   0 
c  8          0   0         0   0         0   0         0   0         0   0 
c  9          1   0         1   0         1   0         1   0         0   0 
c 10          0   0         0   0         0   0         0   0         0   0 
c 11          0   0         0   0         0   0         0   0         0   0 
c 12          1   0         1   0         1   0         1   0         0   0 
c 13          0   0         0   0         0   0         0   0         0   0 
c 14          0   0         0   0         0   0         0   0         0   0 
c 15          0   0         0   0         0   0         0   0         0   0 
c 
c avg             2.6           2.7           2.4           2.6           2.6
c std             0.9           0.9           0.8           0.9           0.8
c 
c 32580 decisions, 1736 conflicts, 162.3 conflicts/sec
c 10834629 propagations, 1.0 megaprops/sec
c 10.7 seconds, 48.5 MB
c 
c    0.152   1% analysis
c    0.444   4% block
c    0.008   0% bump
c    0.000   0% card
c    1.352  13% cce
c    1.112  10% cliff
c    0.028   0% cutwidth
c    0.036   0% decide
c    0.000   0% force
c    0.900   8% gc
c    0.336   3% cgrclsr
c    0.536   5% decomp
c    0.248   2% defrag
c    3.184  30% elim
c    1.468  14% gauss
c    0.312   3% lift
c    0.008   0% mincls
c    0.040   0% phase
c    0.164   2% probe
c    0.004   0% reduce
c    0.064   1% restart
c    0.148   1% ternres
c    0.020   0% transred
c    0.408   4% unhide
c ==================================
c    0.036   0% preprocessing     0%
c    9.429  88% inprocessing    100%
c ==================================
c    9.465  88% simplifying
c    0.000   0% lookahead
c    1.220  11% search
c ==================================
c   10.697 100% all
c
s SATISFIABLE
